[234.0, 263.0, 287.0, 314.0, 332.0, 331.0, 363.0, 339.0, 377.0, 424.0, 389.0, 401.0, 418.0, 395.0, 457.0, 502.0, 492.0, 472.0, 528.0, 488.0, 600.0, 516.0, 492.0, 491.0, 623.0, 603.0, 658.0, 626.0, 585.0, 581.0, 603.0, 576.0, 641.0, 745.0, 655.0, 769.0, 740.0, 671.0, 705.0, 630.0, 774.0, 766.0, 720.0, 795.0, 841.0, 807.0, 797.0, 776.0, 804.0, 914.0, 880.0, 893.0, 885.0, 978.0, 971.0, 894.0, 1122.0, 961.0, 934.0, 920.0, 994.0, 959.0, 1087.0, 1043.0]
